(set-logic ALL)
(set-option :produce-models true)
(declare-sort BoundSet 0)
(declare-sort UnboundSet 0)
(set-option :finite-model-find true)
(declare-fun IsMelting (BoundSet) Bool)
(declare-fun IsAlarming (BoundSet) Bool)
(declare-fun IsAffected (BoundSet) Bool)
(assert (not (=> (exists ((a BoundSet)) (exists ((b BoundSet)) (and (IsMelting a) (IsAlarming b)))) (exists ((c BoundSet)) (IsAffected c)))))
(check-sat)
(get-model)